
  32    4
  10   10   10   10

   0   0   0   0   0  17 2 3 4 5 6 7 10 11 12 13 14 26 27 28 29 30 31 
   2   1   0   1   1   7 24 22 21 19 16 15 9 
   3   3   1   3   0   4 25 20 17 16 
  10   0   5   6   4   3 23 21 17 
   6   0   2   2   4   2 18 8 
   5   5   0   3   5   2 17 16 
   9   4   0   4   4   2 16 15 
   9   6   2   2   0   1 15 
   3   2   6   0   3   1 18 
  10   0   6   2   2   1 16 
   7   7   0   5   2   1 20 
   7   5   0   5   4   1 19 
   3   4   0   7   3   1 15 
   9   2   0   2   2   1 15 
   3   1   5   5   0   1 32
   4   5   0   2   4   1 32
   6   8   3   5   0   1 32
   5   0   6   7   5   1 32
   4   0   5   6   6   1 32
  10   3   3   0   4   1 32
   5   4   6   4   0   1 32
   5   2   3   5   0   1 32
   2   4   3   3   0   1 32
   7   0   3   3   6   1 32
   7   6   0   5   8   1 32
   8   4   0   4   2   1 32
   5   4   6   1   0   1 32
   9   4   5   5   0   1 32
   3   3   3   5   0   1 32
   4   5   4   0   6   1 32
   3   0   3   6   5   1 32
   0   0   0   0   0   0 
